c uprop, v00.0, 
c reading from data/prog559.c.cnf
c done reading: 0.00477
p cnf 150 650
-55 -76 0
-55 -72 0
55 72 76 0
-49 72 76 0
-49 -72 -76 0
49 72 -76 0
49 -72 76 0
55 -67 0
-65 -67 0
-55 65 67 0
-55 -60 65 0
55 -60 -65 0
55 60 65 0
-55 60 -65 0
-56 67 0
-53 -56 0
53 56 -67 0
-51 53 -67 0
-51 -53 67 0
51 53 67 0
51 -53 -67 0
-50 56 0
-47 -50 0
47 50 -56 0
47 -56 -74 0
-47 56 -74 0
47 56 74 0
-47 -56 74 0
50 -78 0
-69 -78 0
-50 69 78 0
-50 69 -79 0
50 -69 -79 0
50 69 79 0
-50 -69 79 0
78 -80 0
-62 -80 0
62 -78 80 0
62 -78 -81 0
-62 78 -81 0
62 78 81 0
-62 -78 81 0
80 -82 0
-58 -82 0
58 -80 82 0
58 -80 -83 0
-58 80 -83 0
58 80 83 0
-58 -80 83 0
72 -84 0
76 -84 0
-72 -76 84 0
-72 -76 -85 0
72 76 -85 0
-72 76 85 0
72 -76 85 0
-65 -72 86 0
-65 -84 86 0
-72 -84 86 0
65 72 -86 0
65 84 -86 0
72 84 -86 0
65 -86 -87 0
72 -86 -87 0
84 -86 -87 0
-65 86 87 0
-72 86 87 0
-84 86 87 0
-65 -72 -84 87 0
65 72 84 -87 0
-53 -65 88 0
-53 -86 88 0
-65 -86 88 0
53 65 -88 0
53 86 -88 0
65 86 -88 0
53 -88 -89 0
65 -88 -89 0
86 -88 -89 0
-53 88 89 0
-65 88 89 0
-86 88 89 0
-53 -65 -86 89 0
53 65 86 -89 0
-47 -53 90 0
-47 -88 90 0
-53 -88 90 0
47 53 -90 0
47 88 -90 0
53 88 -90 0
-45 47 -90 0
-45 53 -90 0
-45 88 -90 0
45 -47 90 0
45 -53 90 0
45 -88 90 0
45 -47 -53 -88 0
-45 47 53 88 0
44 -47 -69 0
44 -69 -90 0
44 -47 -90 0
-44 47 69 0
-44 69 90 0
-44 47 90 0
-43 -44 69 0
-43 -44 47 0
-43 -44 90 0
43 44 -69 0
43 44 -47 0
43 44 -90 0
43 -47 -69 -90 0
-43 47 69 90 0
42 -62 -69 0
42 -44 -62 0
42 -44 -69 0
-42 62 69 0
-42 44 62 0
-42 44 69 0
-41 -42 62 0
-41 -42 69 0
-41 -42 44 0
41 42 -62 0
41 42 -69 0
41 42 -44 0
41 -44 -62 -69 0
-41 44 62 69 0
40 -58 -62 0
40 -42 -58 0
40 -42 -62 0
-40 58 62 0
-40 42 58 0
-40 42 62 0
-40 58 -75 0
-40 62 -75 0
-40 42 -75 0
40 -58 75 0
40 -62 75 0
40 -42 75 0
-42 -58 -62 75 0
42 58 62 -75 0
58 -71 0
40 -71 0
-40 -58 71 0
-40 -58 -64 0
40 58 -64 0
40 -58 64 0
-40 58 64 0
-52 89 0
-52 76 0
52 -76 -89 0
-46 -76 -89 0
-46 76 89 0
46 76 -89 0
46 -76 89 0
-45 68 -72 0
-45 -52 68 0
-52 68 -72 0
45 -68 72 0
45 52 -68 0
52 -68 72 0
45 -61 -68 0
-61 -68 72 0
52 -61 -68 0
-45 61 68 0
61 68 -72 0
-52 61 68 0
-45 -52 61 -72 0
45 52 -61 72 0
-43 57 -65 0
-43 57 -68 0
57 -65 -68 0
43 -57 65 0
43 -57 68 0
-57 65 68 0
-39 43 -57 0
-39 -57 65 0
-39 -57 68 0
39 -43 57 0
39 57 -65 0
39 57 -68 0
39 -43 -65 -68 0
-39 43 65 68 0
38 -41 -53 0
38 -41 -57 0
38 -53 -57 0
-38 41 53 0
-38 41 57 0
-38 53 57 0
-37 -38 41 0
-37 -38 53 0
-37 -38 57 0
37 38 -41 0
37 38 -53 0
37 38 -57 0
37 -41 -53 -57 0
-37 41 53 57 0
36 -47 -75 0
36 -38 -75 0
36 -38 -47 0
-36 47 75 0
-36 38 75 0
-36 38 47 0
-35 -36 75 0
-35 -36 47 0
-35 -36 38 0
35 36 -75 0
35 36 -47 0
35 36 -38 0
35 -38 -47 -75 0
-35 38 47 75 0
34 -64 -69 0
34 -36 -64 0
34 -36 -69 0
-34 64 69 0
-34 36 64 0
-34 36 69 0
-33 -34 64 0
-33 -34 69 0
-33 -34 36 0
33 34 -64 0
33 34 -69 0
33 34 -36 0
33 -36 -64 -69 0
-33 36 64 69 0
32 -62 -71 0
32 -34 -71 0
32 -34 -62 0
-32 62 71 0
-32 34 71 0
-32 34 62 0
-31 -32 71 0
-31 -32 62 0
-31 -32 34 0
31 32 -71 0
31 32 -62 0
31 32 -34 0
31 -34 -62 -71 0
-31 34 62 71 0
-30 58 0
-30 32 0
30 -32 -58 0
-29 -32 -58 0
-29 32 58 0
29 32 -58 0
29 -32 58 0
-28 -76 0
-28 -85 0
28 76 85 0
-27 76 85 0
-27 -76 -85 0
27 -76 85 0
27 76 -85 0
-26 28 0
-26 -87 0
26 -28 87 0
-25 -28 87 0
-25 28 -87 0
25 28 87 0
25 -28 -87 0
-24 26 0
-24 -46 0
24 -26 46 0
-26 46 -91 0
26 -46 -91 0
26 46 91 0
-26 -46 91 0
24 -92 0
-61 -92 0
-24 61 92 0
-24 61 -93 0
24 -61 -93 0
24 61 93 0
-24 -61 93 0
92 -94 0
-39 -94 0
39 -92 94 0
39 -92 -95 0
-39 92 -95 0
39 92 95 0
-39 -92 95 0
94 -96 0
-37 -96 0
37 -94 96 0
37 -94 -97 0
-37 94 -97 0
37 94 97 0
-37 -94 97 0
96 -98 0
-35 -98 0
35 -96 98 0
35 -96 -99 0
-35 96 -99 0
35 96 99 0
-35 -96 99 0
98 -100 0
-33 -100 0
33 -98 100 0
33 -98 -101 0
-33 98 -101 0
33 98 101 0
-33 -98 101 0
100 -102 0
-31 -102 0
31 -100 102 0
31 -100 -103 0
-31 100 -103 0
31 100 103 0
-31 -100 103 0
102 -104 0
-29 -104 0
29 -102 104 0
29 -102 -105 0
-29 102 -105 0
29 102 105 0
-29 -102 105 0
104 -106 0
-30 -106 0
30 -104 106 0
30 -104 -107 0
-30 104 -107 0
30 104 107 0
-30 -104 107 0
-108 -110 0
-110 -111 0
108 110 111 0
108 111 -113 0
-108 -111 -113 0
-108 111 113 0
108 -111 113 0
110 -114 0
-114 -115 0
-110 114 115 0
-110 115 -117 0
110 -115 -117 0
110 115 117 0
-110 -115 117 0
114 -118 0
-118 -119 0
-114 118 119 0
-114 119 -121 0
114 -119 -121 0
114 119 121 0
-114 -119 121 0
118 -122 0
-122 -123 0
-118 122 123 0
-118 123 -125 0
118 -123 -125 0
118 123 125 0
-118 -123 125 0
122 -126 0
-126 -127 0
-122 126 127 0
-122 127 -129 0
122 -127 -129 0
122 127 129 0
-122 -127 129 0
126 -130 0
-130 -131 0
-126 130 131 0
-126 131 -133 0
126 -131 -133 0
126 131 133 0
-126 -131 133 0
130 -134 0
-134 -135 0
-130 134 135 0
-130 135 -137 0
130 -135 -137 0
130 135 137 0
-130 -135 137 0
123 -138 0
108 -138 0
-108 -123 138 0
-108 -123 -139 0
108 123 -139 0
108 -123 139 0
-108 123 139 0
-111 -127 140 0
-127 -138 140 0
-111 -138 140 0
111 127 -140 0
127 138 -140 0
111 138 -140 0
127 -140 -141 0
111 -140 -141 0
138 -140 -141 0
-127 140 141 0
-111 140 141 0
-138 140 141 0
-111 -127 -138 141 0
111 127 138 -141 0
-115 -131 142 0
-131 -140 142 0
-115 -140 142 0
115 131 -142 0
131 140 -142 0
115 140 -142 0
131 -142 -143 0
115 -142 -143 0
140 -142 -143 0
-131 142 143 0
-115 142 143 0
-140 142 143 0
-115 -131 -140 143 0
115 131 140 -143 0
-119 -135 144 0
-135 -142 144 0
-119 -142 144 0
119 135 -144 0
135 142 -144 0
119 142 -144 0
135 -144 -145 0
119 -144 -145 0
142 -144 -145 0
-135 144 145 0
-119 144 145 0
-142 144 145 0
-119 -135 -142 145 0
119 135 142 -145 0
123 -146 0
144 -146 0
-123 -144 146 0
-123 -144 -147 0
123 144 -147 0
-123 144 147 0
123 -144 147 0
127 -148 0
146 -148 0
-127 -146 148 0
-127 -146 -149 0
127 146 -149 0
-127 146 149 0
127 -146 149 0
131 -150 0
148 -150 0
-131 -148 150 0
-77 -131 -148 0
-77 131 148 0
77 -131 148 0
77 131 -148 0
-73 135 0
-73 150 0
73 -135 -150 0
-66 -135 -150 0
-66 135 150 0
66 -135 150 0
66 135 -150 0
-54 -108 0
-54 -111 0
54 108 111 0
-48 108 111 0
-48 -108 -111 0
48 -108 111 0
48 108 -111 0
54 -70 0
-70 -115 0
-54 70 115 0
-54 -63 115 0
54 -63 -115 0
54 63 115 0
-54 63 -115 0
-59 70 0
-59 -119 0
59 -70 119 0
-70 -109 119 0
70 -109 -119 0
70 109 119 0
-70 109 -119 0
59 -112 0
-112 -139 0
-59 112 139 0
-59 -116 139 0
59 -116 -139 0
59 116 139 0
-59 116 -139 0
112 -120 0
-120 -141 0
-112 120 141 0
-112 -124 141 0
112 -124 -141 0
112 124 141 0
-112 124 -141 0
120 -128 0
-128 -143 0
-120 128 143 0
-120 -132 143 0
120 -132 -143 0
120 132 143 0
-120 132 -143 0
128 -136 0
-136 -145 0
-128 136 145 0
-23 -128 145 0
-23 128 -145 0
23 128 145 0
23 -128 -145 0
-22 136 0
-22 -147 0
22 -136 147 0
-21 -136 147 0
-21 136 -147 0
21 136 147 0
21 -136 -147 0
-20 22 0
-20 -149 0
20 -22 149 0
-19 -22 149 0
-19 22 -149 0
19 22 149 0
19 -22 -149 0
-18 20 0
-18 -77 0
18 -20 77 0
-17 -20 77 0
-17 20 -77 0
17 20 77 0
17 -20 -77 0
-16 18 0
-16 -66 0
16 -18 66 0
-15 -18 66 0
-15 18 -66 0
15 18 66 0
15 -18 -66 0
-14 16 0
-14 -73 0
14 -16 73 0
-13 -16 73 0
-13 16 -73 0
13 16 73 0
13 -16 -73 0
-12 76 0
-12 108 0
12 -76 -108 0
-76 -108 0
76 108 0
11 -85 -111 0
11 -12 -85 0
11 -12 -111 0
-11 85 111 0
-11 12 85 0
-11 12 111 0
-11 85 0
-11 111 0
-11 12 0
12 85 111 0
10 -87 -115 0
10 -11 -87 0
10 -11 -115 0
-10 87 115 0
-10 11 87 0
-10 11 115 0
-10 87 0
-10 115 0
-10 11 0
11 87 115 0
9 -46 -119 0
9 -10 -46 0
9 -10 -119 0
-9 46 119 0
-9 10 46 0
-9 10 119 0
9 -46 0
9 -119 0
9 -10 0
-10 -46 -119 0
8 -61 -139 0
8 -9 -61 0
8 -9 -139 0
-8 61 139 0
-8 9 61 0
-8 9 139 0
8 -61 0
8 -139 0
8 -9 0
-9 -61 -139 0
7 -39 -141 0
7 -8 -39 0
7 -8 -141 0
-7 39 141 0
-7 8 39 0
-7 8 141 0
7 -39 0
7 -141 0
7 -8 0
-8 -39 -141 0
6 -37 -143 0
6 -7 -37 0
6 -7 -143 0
-6 37 143 0
-6 7 37 0
-6 7 143 0
6 -37 0
6 -143 0
6 -7 0
-7 -37 -143 0
5 -35 -145 0
5 -6 -35 0
5 -6 -145 0
-5 35 145 0
-5 6 35 0
-5 6 145 0
-5 35 0
-5 145 0
-5 6 0
6 35 145 0
4 -33 -147 0
4 -5 -33 0
4 -5 -147 0
-4 33 147 0
-4 5 33 0
-4 5 147 0
4 -33 0
4 -147 0
4 -5 0
-5 -33 -147 0
3 -31 -149 0
3 -4 -31 0
3 -4 -149 0
-3 31 149 0
-3 4 31 0
-3 4 149 0
3 -31 0
3 -149 0
3 -4 0
-4 -31 -149 0
2 -29 -77 0
2 -3 -29 0
2 -3 -77 0
-2 29 77 0
-2 3 29 0
-2 3 77 0
2 -29 0
2 -77 0
2 -3 0
-3 -29 -77 0
1 -30 -66 0
1 -2 -30 0
1 -2 -66 0
-1 30 66 0
-1 2 30 0
-1 2 66 0
1 -30 0
1 -66 0
1 -2 0
-2 -30 -66 0
-1 -73 0
1 -73 0
-1 73 0
